(set-info :Origin "This instance was generated by: BanditFuzz-- an RL fuzzer for SMT solvers" )
(set-info :Author "Joe Scott, Fed Mora, Vijay Ganesh" )
(set-info :Contact "Joe Scott, joseph.scott@uwaterloo.ca")
(set-logic QF_BV)
(declare-const bool_0 Bool)
(declare-const bool_1 Bool)
(declare-const bool_2 Bool)
(declare-const bool_3 Bool)
(declare-const bool_4 Bool)
(declare-const bv_0 (_ BitVec 32))
(declare-const bv_1 (_ BitVec 32))
(declare-const bv_2 (_ BitVec 32))
(declare-const bv_3 (_ BitVec 32))
(declare-const bv_4 (_ BitVec 32))
(assert (bvsgt (bvadd (bvnand #xcbbeeeb4  bv_4) (bvurem bv_2 bv_0)) (bvadd (bvlshr #xdcd7c4d7  #xd5ef1720 ) (bvand bv_1 bv_1))))
(assert (bvugt (bvnand (bvshl #xeb7562fa  bv_0) (bvsrem bv_4 #x61e32589 )) (bvsrem (bvsub bv_1 bv_3) (bvsub bv_0 #x8380e5fe ))))
(assert (or (xor (bvule bv_1 bv_4) (bvuge bv_3 #x40e31c55 )) (bvsge (bvudiv bv_1 bv_2) (bvudiv bv_2 #x0491ac4d ))))
(assert (bvslt (bvnand (bvnor bv_0 #x9e70287f ) (bvashr bv_0 #xfae039a7 )) (bvxnor (bvor #xef7118ba  bv_3) (bvor #xc14278f7  #xf4b8440d ))))
(assert (bvuge (bvsdiv (bvor bv_4 #x6f3234e8 ) (bvurem bv_0 #x513ff2f2 )) (bvshl (bvand #x71071c54  bv_1) (bvsdiv #x6e79b2af  bv_1))))
(check-sat)
(exit)
